(set-logic HORN)
(declare-fun !inv0 (Int (Array Int Int) (Array Int Int) Int ) Bool)
(declare-fun !inv1 (Int (Array Int Int) (Array Int Int) Int Int Int (Array Int Int) ) Bool)
(assert (forall ((N@0 Int)(a@0 (Array Int Int))(b@0 (Array Int Int))(i@1 Int)) (=> (and (> |N@0| 0) (= |i@1| 0)) (!inv0 |N@0| |a@0| |b@0| |i@1|))))
(assert (forall ((N@0 Int)(a@0 (Array Int Int))(b@0 (Array Int Int))(i@0 Int)(x@0 Int)(y@0 Int)(a@1 (Array Int Int))(b@1 (Array Int Int))(i@1 Int)) (=> (and (!inv0 |N@0| |a@0| |b@0| |i@0|) (< |i@0| |N@0|) (> |x@0| |y@0|) (= |a@1| (store |a@0| |i@0| |x@0|)) (= |b@1| (store |b@0| |i@0| |y@0|)) (= |i@1| (+ |i@0| 1))) (!inv0 |N@0| |a@1| |b@1| |i@1|))))
(assert (forall ((N@0 Int)(a@0 (Array Int Int))(b@0 (Array Int Int))(i@0 Int)(x@0 Int)(y@0 Int)(c@0 (Array Int Int))(i@1 Int)) (=> (and (!inv0 |N@0| |a@0| |b@0| |i@0|) (not (< |i@0| |N@0|)) (= |i@1| 0)) (!inv1 |N@0| |a@0| |b@0| |i@1| |x@0| |y@0| |c@0|))))
(assert (forall ((N@0 Int)(a@0 (Array Int Int))(b@0 (Array Int Int))(i@0 Int)(x@0 Int)(y@0 Int)(c@0 (Array Int Int))(c@1 (Array Int Int))(i@1 Int)) (=> (and (!inv1 |N@0| |a@0| |b@0| |i@0| |x@0| |y@0| |c@0|) (< |i@0| |N@0|) (= |c@1| (store |c@0| |i@0| (- (select |a@0| |i@0|) (select |b@0| |i@0|)))) (= |i@1| (+ |i@0| 1))) (!inv1 |N@0| |a@0| |b@0| |i@1| |x@0| |y@0| |c@1|))))
(assert (forall ((N@0 Int)(a@0 (Array Int Int))(b@0 (Array Int Int))(i@0 Int)(x@0 Int)(y@0 Int)(c@0 (Array Int Int))) (=> (and (!inv1 |N@0| |a@0| |b@0| |i@0| |x@0| |y@0| |c@0|) (not (< |i@0| |N@0|)) (not (forall ((k@0 Int)) (=> (and (<= 1 |k@0|) (< |k@0| |N@0|)) (> (select |c@0| |k@0|) 0))))) false)))
(check-sat)